% ===== Rolling horizon from *midday today* for 36h =====
T = 36;
start_hour_of_day = 12;  % t=1 is 12:00 (noon) today

% ---- Forecasts from now .. now+36h ----
solar_gen_kw = [
    2.015, 2.020, 2.192, 3.480, 2.812, 1.544, 0.524, 0.000, 0.000, 0.000, 0.000, 0.000,
    0.000, 0.000, 0.000, 0.000, 0.000, 0.000, 0.000, 0.518, 1.635, 3.008, 4.306, 5.250,
    5.250, 5.250, 5.250, 4.606, 3.329, 1.877, 0.918, 0.000, 0.000, 0.000, 0.000, 0.000
];

base_load_kw = [
  0.95,1.05,1.15,1.35,1.55,1.85, 0.6,0.6, 1.6,1.3,1.1,1.0,
  0.90,0.95,0.95,1.05,1.15,1.35,1.65,1.65, 0.6,0.6,0.6,0.6,
  0.95,1.05,1.15,1.35,1.55,1.85,2.15,1.95,1.60,1.30,1.10,1.00
];  % trimmed to 0.6 kW during loadshedding. Excludes pool pump

price_buy_per_kwh  = [
  0.31, 0.25, 0.25, 0.47, 1.05, 1.35, 1.52, 1.67, 1.5, 1.1, 0.86, 0.49,
  0.38, 0.33, 0.26, 0.23, 0.27, 0.68, 1.25, 1.45, 1.42, 1.19, 0.92, 0.61, 0.19, 0.11, 0.12, 0.13, 0.38, 0.83, 0.95, 0.98, 0.98, 0.79, 0.48, 0.41
];
price_sell_per_kwh = [ price_buy_per_kwh[t] * 0.20 | t in 1..T ];

% 1 = grid OFF (load shedding)
grid_outage_on = [
  % t=1..12  (today 12:00–23:00)
  0,0,0,0,0,0, 1,1, 0,0,0,0,
  % t=13..36 (tomorrow 00:00–23:00)
  0,0,0,0,0,0,0,0,  1,1,1,1,  0,0,0,0,0,0,0,0,0,0,0,0
];

% ---- Battery & grid limits ----
batt_capacity_kwh   = 10.0;
batt_power_max_kw   = 5.0;  % max charge/discharge power the battery can push/pull on the AC side
eff_charge          = 0.95;
eff_discharge       = 0.95;

soc0_kwh            = 2.0;   % measured at now
soc_min_kwh         = 1.0;
soc_max_kwh         = 10.0;

grid_import_max_kw  = 5.0;   % roughly 20 A @ 240 VAC
grid_export_max_kw  = 5.0;

% ---- Costs / penalties ----
pen_batt_wear_per_kwh          = 0.13;  % wear ≈ battery_cost / (capacity * lifecycles) → e.g., 4000 / (10 * 3000) = 0.133
pen_mode_switch_per_event      = 0.02;  % 0.01–0.05 to reduce flip-flops without blocking good arbitrage
pen_export_per_kwh             = 0.00;  % >0 if you want to discourage export even when FIT>0 (e.g., 0–0.02)

% Soft terminal SOC preference (keep small; just a nudge)
soc_target_min_kwh             = 3.0;   % try keep above 30% for buffer
soc_target_max_kwh             = 9.0;   % and below 90% to minimse wear
pen_terminal_soc_per_kwh       = 0.02;  % keep tiny (0–0.05) so it nudges, not dominates

% ---- Pool pump config ----
pump_power_kw                  = 1.2;
pump_run_hours_min_per_day     = 6;
pump_window_start_hod          = 8;     % [8,20)
pump_window_end_hod            = 20;

pump_hours_done_today          = 3;     % measured at now
pen_pump_shortage_per_hour     = 10.0;  % only today's shortage is penalized

% ---- Advice heuristics ----
cheap_marginal_cost_threshold_per_kwh = 0.51;  % Currency units, calculate eg 30th percentile of day ahead buy price and insert here
export_surplus_threshold_kw           = 0.10;  % 0.05–0.2 kW (avoid noise)
pen_advice_discharge_nudge_per_kwh    = 0.02;  % 0.01–0.03 (gently avoids recommending hours when you’re discharging)

% --- Pre-shedding anchor parameters ---
pre_shed_soc_min_kwh     = 3.0;
pen_pre_shed_soc_per_kwh = 0.51;  % This should be similar range to cheap electricity, like cheap_marginal_cost_threshold_per_kwh
